0 7672766
3 7630646
6 7564580
7 7561624
17 7556975
18 7551606
24 7532886
26 7493201
30 7462646
40 7462478
41 7455760
46 7445580
78 7443435
81 7431522
86 7430822
119 7428741
123 7426583
125 7381861
128 7362415
135 7361895
138 7361860
140 7353540
150 7344003
152 7340334
163 7331076
164 7304582
165 7302515
168 7257808
176 7225786
181 7222571
183 7220089
197 7214718
200 7214653
205 7213721
216 7202193
227 7195995
232 7161389
247 7161347
254 7156705
275 7156621
295 7155431
321 7154626
371 7154570
397 7146679
400 7145940
416 7144998
421 7142094
501 7138103
507 7138075
601 7137065
604 7131757
654 7131659
657 7120089
692 7119621
724 7119467
736 7119460
1037 7118472
